(set-info :smt-lib-version 2.6)
(set-logic QF_NIA)
(set-info :source |
Generated by the tool Ultimate Automizer [1,2] which implements
an automata theoretic approach [3] to software verification.

This SMT script belongs to a set of SMT scripts that was generated by
applying Ultimate Automizer to benchmarks [4] from the SV-COMP 2023 [5,6].
This script may not contain all SMT commands that Ultimate Automizer
issued. In order to meet the restrictions for SMT-COMP benchmarks 
we dropped the commands for getting values (resp. models), 
unsatisfiable cores, and interpolants.

2023-03-21, Matthias Heizmann (heizmann@informatik.uni-freiburg.de)

[1] https://ultimate.informatik.uni-freiburg.de/automizer/
[2] Matthias Heizmann, Max Barth, Daniel Dietsch, Leonard Fichtner,
     Jochen Hoenicke, Dominik Klumpp, Mehdi Naouar, Tanja Schindler,
     Frank Schüssele, Andreas Podelski: Ultimate Automizer and the
     CommuHash Normal Form (Competition Contribution). TACAS 2023
[3] Matthias Heizmann, Jochen Hoenicke, Andreas Podelski: Software Model
     Checking for People Who Love Automata. CAV 2013
[4] https://github.com/sosy-lab/sv-benchmarks
[5] Dirk Beyer: Competition on Software Verification and
     Witness Validation: SV-COMP 2023.  TACAS 2023
[6] https://sv-comp.sosy-lab.org/2023/
|)
(set-info :license "https://creativecommons.org/licenses/by/4.0/")
(set-info :category "industrial")
(set-info :status unknown)
(declare-fun |__VERIFIER_assert_#in~cond| () Int)
(declare-fun |v_ULTIMATE.start_main_~y~0#1_BEFORE_CALL_9| () Int)
(declare-fun |v_ULTIMATE.start_main_~k~0#1_BEFORE_CALL_4| () Int)
(declare-fun |v_ULTIMATE.start_main_~x~0#1_BEFORE_CALL_5| () Int)
(assert (and (not (= (mod (+ (* 29 |v_ULTIMATE.start_main_~y~0#1_BEFORE_CALL_9|) (* 6 |v_ULTIMATE.start_main_~y~0#1_BEFORE_CALL_9| |v_ULTIMATE.start_main_~y~0#1_BEFORE_CALL_9| |v_ULTIMATE.start_main_~y~0#1_BEFORE_CALL_9| |v_ULTIMATE.start_main_~y~0#1_BEFORE_CALL_9| |v_ULTIMATE.start_main_~y~0#1_BEFORE_CALL_9|) (* 10 |v_ULTIMATE.start_main_~y~0#1_BEFORE_CALL_9| |v_ULTIMATE.start_main_~y~0#1_BEFORE_CALL_9| |v_ULTIMATE.start_main_~y~0#1_BEFORE_CALL_9|) (* 15 |v_ULTIMATE.start_main_~y~0#1_BEFORE_CALL_9| |v_ULTIMATE.start_main_~y~0#1_BEFORE_CALL_9| |v_ULTIMATE.start_main_~y~0#1_BEFORE_CALL_9| |v_ULTIMATE.start_main_~y~0#1_BEFORE_CALL_9|)) 30) 0)) (= |__VERIFIER_assert_#in~cond| 1) (not (= (* |v_ULTIMATE.start_main_~k~0#1_BEFORE_CALL_4| |v_ULTIMATE.start_main_~y~0#1_BEFORE_CALL_9|) (* |v_ULTIMATE.start_main_~y~0#1_BEFORE_CALL_9| |v_ULTIMATE.start_main_~y~0#1_BEFORE_CALL_9|)))))
(assert (not (= (+ (* |v_ULTIMATE.start_main_~x~0#1_BEFORE_CALL_5| 30) |v_ULTIMATE.start_main_~y~0#1_BEFORE_CALL_9|) (+ (* (* |v_ULTIMATE.start_main_~y~0#1_BEFORE_CALL_9| |v_ULTIMATE.start_main_~y~0#1_BEFORE_CALL_9| |v_ULTIMATE.start_main_~y~0#1_BEFORE_CALL_9| |v_ULTIMATE.start_main_~y~0#1_BEFORE_CALL_9| |v_ULTIMATE.start_main_~y~0#1_BEFORE_CALL_9|) 6) (* (* |v_ULTIMATE.start_main_~y~0#1_BEFORE_CALL_9| |v_ULTIMATE.start_main_~y~0#1_BEFORE_CALL_9| |v_ULTIMATE.start_main_~y~0#1_BEFORE_CALL_9| |v_ULTIMATE.start_main_~y~0#1_BEFORE_CALL_9|) 15) (* (* |v_ULTIMATE.start_main_~y~0#1_BEFORE_CALL_9| |v_ULTIMATE.start_main_~y~0#1_BEFORE_CALL_9| |v_ULTIMATE.start_main_~y~0#1_BEFORE_CALL_9|) 10)))))
(check-sat)
(exit)
